peakDumbCharging = 7400; 
Machine = anon_enum(16); 
machineSpeed = [3700,3700,3700,3700,3700,3700,3700,3700,3700,3700,3700,3700,3700,3700,3700,3700]; 
machineLoad = [3700,3700,3700,3700,3700,3700,3700,3700,3700,3700,3700,3700,3700,3700,3700,3700]; 
Car = anon_enum(7); 
demandCar = [29080,5800,14920,8480,17440,1480,6320]; 
arrivalCar = [78,75,72,69,60,51,37]; 
departureCar = [88,78,80,73,67,52,40]; 
